# Objective value = 1.9749066283426075e+03
x[0] 1
x[1] 0
x[2] 0
x[3] 0
x[4] 1
x[5] 1
x[6] 0
x[7] 0
x[8] 1
x[9] 0
x[10] 1
x[11] 0
x[12] 1
x[13] 1
x[14] 1
x[15] 0
x[16] 0
x[17] 1
x[18] 1
x[19] 0
x[20] 1
x[21] 0
x[22] 1
x[23] 0
x[24] 1
x[25] 1
x[26] 1
x[27] 0
x[28] 0
x[29] 0
x[30] 0
x[31] 0
x[32] 1
x[33] 1
x[34] 1
x[35] 1
x[36] 0
x[37] 1
x[38] 1
x[39] 0
x[40] 1
x[41] 0
x[42] 0
x[43] 0
x[44] 0
x[45] 0
x[46] 0
x[47] 1
x[48] 1
x[49] 1
x[50] 1
x[51] 1
x[52] 1
x[53] 1
x[54] 1
x[55] 0
x[56] 0
x[57] 1
x[58] 1
x[59] 1
x[60] 1
x[61] 1
x[62] 0
x[63] 1
x[64] 0
x[65] 1
x[66] 1
x[67] 1
x[68] 0
x[69] 0
x[70] 1
x[71] 0
x[72] 1
x[73] 0
x[74] 1
x[75] 1
x[76] 1
x[77] 1
x[78] 1
x[79] 0
x[80] 1
x[81] 1
x[82] 1
x[83] 1
x[84] 0
x[85] 0
x[86] 0
x[87] 1
x[88] 0
x[89] 1
x[90] 1
x[91] 0
x[92] 1
x[93] 1
x[94] 1
x[95] 1
x[96] 0
x[97] 1
x[98] 1
x[99] 0
x[100] 0
x[101] 1
x[102] 1
x[103] 1
x[104] 0
x[105] 1
x[106] 1
x[107] 0
x[108] 1
x[109] 0
x[110] 0
x[111] 1
x[112] 1
x[113] 0
x[114] 0
x[115] 0
x[116] 1
x[117] 1
x[118] 0
x[119] 0
x[120] 0
x[121] 1
x[122] 1
x[123] 0
x[124] 1
x[125] 0
x[126] 1
x[127] 1
x[128] 1
x[129] 0
x[130] 1
x[131] 1
x[132] 0
x[133] 1
x[134] 1
x[135] 1
x[136] 1
x[137] 1
x[138] 0
x[139] 1
x[140] 0
x[141] 0
x[142] 1
x[143] 0
x[144] 1
x[145] 0
x[146] 1
x[147] 1
x[148] 1
x[149] 0
x[150] 0
x[151] 0
x[152] 0
x[153] 1
x[154] 0
x[155] 0
x[156] 1
x[157] 0
x[158] 1
x[159] 1
x[160] 0
x[161] 1
x[162] 0
x[163] 1
x[164] 0
x[165] 1
x[166] 0
x[167] 1
x[168] 0
x[169] 0
x[170] 1
x[171] 1
x[172] 1
x[173] 1
x[174] 1
x[175] 1
x[176] 1
x[177] 1
x[178] 1
x[179] 1
x[180] 1
x[181] 1
x[182] 0
x[183] 1
x[184] 1
x[185] 1
x[186] 1
x[187] 0
x[188] 0
x[189] 1
x[190] 1
x[191] 0
x[192] 1
x[193] 0
x[194] 0
x[195] 1
x[196] 0
x[197] 0
x[198] 0
x[199] 1
x[200] 0
x[201] 0
x[202] 1
x[203] 0
x[204] 0
x[205] 1
x[206] 1
x[207] 1
x[208] 0
x[209] 0
x[210] 0
x[211] 0
x[212] 0
x[213] 1
x[214] 0
x[215] 0
x[216] 0
x[217] 1
x[218] 0
x[219] 1
x[220] 1
x[221] 1
x[222] 0
x[223] 1
x[224] 0
x[225] 1
x[226] 0
x[227] 0
x[228] 1
x[229] 1
x[230] 1
x[231] 1
x[232] 1
x[233] 1
x[234] 1
x[235] 0
x[236] 1
x[237] 1
x[238] 1
x[239] 1
x[240] 1
x[241] 1
x[242] 1
x[243] 1
x[244] 1
x[245] 0
x[246] 0
x[247] 1
x[248] 0
x[249] 0
x[250] 0
x[251] 1
x[252] 1
x[253] 1
x[254] 1
x[255] 0
x[256] 1
x[257] 1
x[258] 1
x[259] 1
x[260] 0
x[261] 1
x[262] 1
x[263] 0
x[264] 1
x[265] 1
x[266] 1
x[267] 0
x[268] 0
x[269] 0
x[270] 1
x[271] 1
x[272] 1
x[273] 0
x[274] 1
x[275] 1
x[276] 0
x[277] 1
x[278] 1
x[279] 1
x[280] 1
x[281] 1
x[282] 1
x[283] 0
x[284] 1
x[285] 0
x[286] 0
x[287] 1
x[288] 0
x[289] 1
x[290] 0
x[291] 0
x[292] 1
x[293] 0
x[294] 0
x[295] 0
x[296] 0
x[297] 1
x[298] 1
x[299] 1
x[300] 1
x[301] 1
x[302] 1
x[303] 1
x[304] 1
x[305] 0
x[306] 1
x[307] 1
x[308] 1
x[309] 0
x[310] 1
x[311] 0
x[312] 0
x[313] 1
x[314] 0
x[315] 0
x[316] 1
x[317] 1
x[318] 1
x[319] 1
x[320] 0
x[321] 1
x[322] 0
x[323] 1
x[324] 0
x[325] 0
x[326] 0
x[327] 1
x[328] 0
x[329] 1
x[330] 0
x[331] 1
x[332] 0
x[333] 0
x[334] 1
x[335] 1
x[336] 1
x[337] 1
x[338] 1
x[339] 0
x[340] 1
x[341] 0
x[342] 1
x[343] 1
x[344] 1
x[345] 0
x[346] 1
x[347] 1
x[348] 1
x[349] 1
x[350] 1
x[351] 1
x[352] 0
x[353] 1
x[354] 1
x[355] 0
x[356] 1
x[357] 0
x[358] 1
x[359] 1
x[360] 1
x[361] 0
x[362] 0
x[363] 0
x[364] 0
x[365] 1
x[366] 1
x[367] 1
x[368] 0
x[369] 1
x[370] 0
x[371] 1
x[372] 0
x[373] 1
x[374] 0
x[375] 0
x[376] 1
x[377] 0
x[378] 1
x[379] 0
x[380] 0
x[381] 1
x[382] 0
x[383] 0
x[384] 1
x[385] 0
x[386] 1
x[387] 0
x[388] 0
x[389] 0
x[390] 1
x[391] 1
x[392] 0
x[393] 0
x[394] 0
x[395] 1
x[396] 1
x[397] 1
x[398] 0
x[399] 1
x[400] 1
x[401] 0
x[402] 1
x[403] 1
x[404] 1
x[405] 1
x[406] 0
x[407] 1
x[408] 0
x[409] 1
x[410] 0
x[411] 1
x[412] 1
x[413] 0
x[414] 1
x[415] 1
x[416] 0
x[417] 0
x[418] 0
x[419] 1
x[420] 0
x[421] 0
x[422] 0
x[423] 1
x[424] 0
x[425] 0
x[426] 1
x[427] 0
x[428] 0
x[429] 1
x[430] 0
x[431] 1
x[432] 1
x[433] 0
x[434] 1
x[435] 1
x[436] 1
x[437] 0
x[438] 1
x[439] 1
x[440] 1
x[441] 1
x[442] 1
x[443] 1
x[444] 0
x[445] 1
x[446] 1
x[447] 0
x[448] 1
x[449] 1
x[450] 0
x[451] 1
x[452] 1
x[453] 1
x[454] 1
x[455] 0
x[456] 1
x[457] 1
x[458] 1
x[459] 0
x[460] 0
x[461] 0
x[462] 0
x[463] 1
x[464] 1
x[465] 1
x[466] 1
x[467] 0
x[468] 1
x[469] 0
x[470] 1
x[471] 0
x[472] 1
x[473] 1
x[474] 1
x[475] 1
x[476] 0
x[477] 0
x[478] 1
x[479] 0
x[480] 0
x[481] 1
x[482] 0
x[483] 0
x[484] 0
x[485] 1
x[486] 1
x[487] 0
x[488] 1
x[489] 1
x[490] 1
x[491] 1
x[492] 1
x[493] 1
x[494] 1
x[495] 1
x[496] 1
x[497] 1
x[498] 1
x[499] 1
x[500] 1
x[501] 1
x[502] 1
x[503] 1
x[504] 1
x[505] 1
x[506] 1
x[507] 0
x[508] 1
x[509] 0
x[510] 1
x[511] 0
x[512] 1
x[513] 0
x[514] 1
x[515] 1
x[516] 1
x[517] 0
x[518] 0
x[519] 1
x[520] 0
x[521] 1
x[522] 0
x[523] 0
x[524] 0
x[525] 0
x[526] 0
x[527] 0
x[528] 1
x[529] 1
x[530] 1
x[531] 1
x[532] 0
x[533] 0
x[534] 0
x[535] 0
x[536] 0
x[537] 1
x[538] 0
x[539] 1
x[540] 0
x[541] 0
x[542] 0
x[543] 1
x[544] 0
x[545] 0
x[546] 0
x[547] 0
x[548] 1
x[549] 1
x[550] 1
x[551] 1
x[552] 0
x[553] 0
x[554] 0
x[555] 1
x[556] 0
x[557] 0
x[558] 1
x[559] 0
x[560] 0
x[561] 0
x[562] 1
x[563] 0
x[564] 1
x[565] 1
x[566] 1
x[567] 1
x[568] 0
x[569] 1
x[570] 0
x[571] 0
x[572] 0
x[573] 1
x[574] 1
x[575] 0
x[576] 1
x[577] 0
x[578] 1
x[579] 0
x[580] 0
x[581] 0
x[582] 1
x[583] 1
x[584] 1
x[585] 1
x[586] 1
x[587] 1
x[588] 1
x[589] 1
x[590] 1
x[591] 1
x[592] 1
x[593] 1
x[594] 1
x[595] 1
x[596] 0
x[597] 1
x[598] 1
x[599] 0
x[600] 0
x[601] 1
x[602] 0
x[603] 1
x[604] 0
x[605] 0
x[606] 0
x[607] 0
x[608] 1
x[609] 1
x[610] 0
x[611] 1
x[612] 0
x[613] 1
x[614] 0
x[615] 0
x[616] 1
x[617] 1
x[618] 0
x[619] 1
x[620] 1
x[621] 0
x[622] 0
x[623] 1
x[624] 0
x[625] 0
x[626] 1
x[627] 1
x[628] 1
x[629] 1
x[630] 0
x[631] 1
x[632] 1
x[633] 1
x[634] 1
x[635] 1
x[636] 1
x[637] 0
x[638] 0
x[639] 0
x[640] 1
x[641] 1
x[642] 0
x[643] 1
x[644] 1
x[645] 0
x[646] 0
x[647] 1
x[648] 0
x[649] 1
x[650] 1
x[651] 1
x[652] 1
x[653] 1
x[654] 0
x[655] 1
x[656] 0
x[657] 1
x[658] 1
x[659] 1
x[660] 0
x[661] 0
x[662] 0
x[663] 1
x[664] 1
x[665] 0
x[666] 0
x[667] 1
x[668] 1
x[669] 0
x[670] 0
x[671] 0
x[672] 0
x[673] 1
x[674] 1
x[675] 1
x[676] 0
x[677] 1
x[678] 1
x[679] 1
x[680] 1
x[681] 0
x[682] 0
x[683] 0
x[684] 1
x[685] 0
x[686] 1
x[687] 1
x[688] 0
x[689] 0
x[690] 1
x[691] 0
x[692] 1
x[693] 1
x[694] 1
x[695] 0
x[696] 0
x[697] 1
x[698] 1
x[699] 0
x[700] 0
x[701] 0
x[702] 1
x[703] 1
x[704] 0
x[705] 0
x[706] 0
x[707] 0
x[708] 0
x[709] 0
x[710] 0
x[711] 1
x[712] 0
x[713] 0
x[714] 0
x[715] 0
x[716] 0
x[717] 0
x[718] 0
x[719] 0
x[720] 1
x[721] 1
x[722] 0
x[723] 1
x[724] 0
x[725] 1
x[726] 1
x[727] 1
x[728] 1
x[729] 0
x[730] 0
x[731] 1
x[732] 1
x[733] 1
x[734] 0
x[735] 1
x[736] 1
x[737] 0
x[738] 0
x[739] 0
x[740] 1
x[741] 1
x[742] 1
x[743] 0
x[744] 1
x[745] 0
x[746] 1
x[747] 0
x[748] 0
x[749] 1
x[750] 0
x[751] 1
x[752] 0
x[753] 1
x[754] 0
x[755] 1
x[756] 0
x[757] 0
x[758] 0
x[759] 1
x[760] 0
x[761] 0
x[762] 1
x[763] 1
x[764] 1
x[765] 0
x[766] 1
x[767] 1
x[768] 1
x[769] 0
x[770] 0
x[771] 1
x[772] 0
x[773] 1
x[774] 0
x[775] 0
x[776] 1
x[777] 0
x[778] 1
x[779] 1
x[780] 1
x[781] 0
x[782] 1
x[783] 1
x[784] 0
x[785] 1
x[786] 1
x[787] 1
x[788] 1
x[789] 0
x[790] 0
x[791] 1
x[792] 1
x[793] 0
x[794] 0
x[795] 1
x[796] 0
x[797] 1
x[798] 0
x[799] 1
x[800] 1
x[801] 0
x[802] 1
x[803] 1
x[804] 1
x[805] 1
x[806] 1
x[807] 1
x[808] 1
x[809] 1
x[810] 0
x[811] 1
x[812] 0
x[813] 1
x[814] 0
x[815] 0
x[816] 1
x[817] 0
x[818] 0
x[819] 1
x[820] 1
x[821] 1
x[822] 1
x[823] 0
x[824] 1
x[825] 0
x[826] 1
x[827] 0
x[828] 1
x[829] 0
x[830] 1
x[831] 1
x[832] 1
x[833] 1
x[834] 1
x[835] 0
x[836] 1
x[837] 1
x[838] 1
x[839] 0
x[840] 0
x[841] 0
x[842] 1
x[843] 1
x[844] 0
x[845] 0
x[846] 0
x[847] 0
x[848] 1
x[849] 1
x[850] 1
x[851] 0
x[852] 0
x[853] 1
x[854] 0
x[855] 1
x[856] 0
x[857] 0
x[858] 0
x[859] 1
x[860] 0
x[861] 1
x[862] 0
x[863] 1
x[864] 1
x[865] 0
x[866] 0
x[867] 1
x[868] 1
x[869] 1
x[870] 0
x[871] 1
x[872] 1
x[873] 0
x[874] 1
x[875] 1
x[876] 0
x[877] 1
x[878] 0
x[879] 0
x[880] 0
x[881] 0
x[882] 1
x[883] 1
x[884] 0
x[885] 0
x[886] 0
x[887] 1
x[888] 1
x[889] 0
x[890] 0
x[891] 0
x[892] 0
x[893] 1
x[894] 0
x[895] 1
x[896] 1
x[897] 1
x[898] 1
x[899] 0
x[900] 1
x[901] 0
x[902] 1
x[903] 0
x[904] 1
x[905] 0
x[906] 0
x[907] 0
x[908] 1
x[909] 1
x[910] 1
x[911] 0
x[912] 1
x[913] 1
x[914] 0
x[915] 0
x[916] 1
x[917] 1
x[918] 0
x[919] 0
x[920] 1
x[921] 0
x[922] 0
x[923] 0
x[924] 1
x[925] 1
x[926] 0
x[927] 0
x[928] 1
x[929] 0
x[930] 0
x[931] 1
x[932] 1
x[933] 1
x[934] 0
x[935] 0
x[936] 1
x[937] 1
x[938] 1
x[939] 0
x[940] 0
x[941] 1
x[942] 1
x[943] 1
x[944] 1
x[945] 0
x[946] 0
x[947] 0
x[948] 0
x[949] 0
x[950] 0
x[951] 1
x[952] 1
x[953] 0
x[954] 1
x[955] 0
x[956] 1
x[957] 0
x[958] 0
x[959] 0
x[960] 1
x[961] 1
x[962] 0
x[963] 1
x[964] 1
x[965] 1
x[966] 1
x[967] 1
x[968] 0
x[969] 1
x[970] 1
x[971] 1
x[972] 0
x[973] 1
x[974] 0
x[975] 1
x[976] 1
x[977] 1
x[978] 0
x[979] 1
x[980] 1
x[981] 0
x[982] 0
x[983] 1
x[984] 0
x[985] 1
x[986] 0
x[987] 1
x[988] 0
x[989] 1
x[990] 0
x[991] 1
x[992] 0
x[993] 0
x[994] 1
x[995] 1
x[996] 1
x[997] 0
x[998] 1
x[999] 1
